************************************************************************
file with basedata            : cm131_.bas
initial value random generator: 613971564
************************************************************************
projects                      :  1
jobs (incl. supersource/sink ):  18
horizon                       :  81
RESOURCES
  - renewable                 :  2   R
  - nonrenewable              :  2   N
  - doubly constrained        :  0   D
************************************************************************
PROJECT INFORMATION:
pronr.  #jobs rel.date duedate tardcost  MPM-Time
    1     16      0       34        6       34
************************************************************************
PRECEDENCE RELATIONS:
jobnr.    #modes  #successors   successors
   1        1          3           2   3   4
   2        1          3           9  10  14
   3        1          2           8  10
   4        1          3           5   7   9
   5        1          1           6
   6        1          3          12  14  15
   7        1          2          10  11
   8        1          1          11
   9        1          3          15  16  17
  10        1          2          12  17
  11        1          2          12  13
  12        1          1          16
  13        1          2          14  15
  14        1          2          16  17
  15        1          1          18
  16        1          1          18
  17        1          1          18
  18        1          0        
************************************************************************
REQUESTS/DURATIONS:
jobnr. mode duration  R 1  R 2  N 1  N 2
------------------------------------------------------------------------
  1      1     0       0    0    0    0
  2      1    10       9    7    0    8
  3      1     2       6    7    0    3
  4      1     4       1    3    0    5
  5      1     8       5    7    0    5
  6      1     2       2    5    2    0
  7      1     5       4    5    5    0
  8      1     2       5    2    0    4
  9      1     4       3    5    8    0
 10      1     9       8    5    0    8
 11      1     7       3    7    8    0
 12      1     1       5    4    0    6
 13      1    10       5    7    7    0
 14      1     6       5   10    6    0
 15      1     8       5    6    9    0
 16      1     2       4    4    0    8
 17      1     1       8    6    0   10
 18      1     0       0    0    0    0
************************************************************************
RESOURCEAVAILABILITIES:
  R 1  R 2  N 1  N 2
   17   21   45   57
************************************************************************
